\ LP format - for model browsing. Use MPS format to capture full model detail.
Maximize
  480 x11 + 480 x12 + 480 x13 + 600 x21 + 600 x22 + 600 x23 + 430 x31
   + 430 x32 + 430 x33 + 380 x41 + 380 x42 + 380 x43
Subject To
 R0: 35 x11 + 25 x21 + 30 x31 + 20 x41 <= 1200
 R1: 35 x12 + 25 x22 + 30 x32 + 20 x42 <= 1800
 R2: 35 x13 + 25 x23 + 30 x33 + 20 x43 <= 1080
 R3: 30 x11 + 50 x21 + 30 x31 + 25 x41 <= 1380
 R4: 30 x12 + 50 x22 + 30 x32 + 25 x42 <= 1500
 R5: 30 x13 + 50 x23 + 30 x33 + 25 x43 <= 1200
 R6: 30 x11 + 45 x21 + 25 x31 + 30 x41 <= 1320
 R7: 30 x12 + 45 x22 + 25 x32 + 30 x42 <= 1500
 R8: 30 x13 + 45 x23 + 25 x33 + 30 x43 <= 1080
 R9: 22 x11 + 30 x21 + 26 x31 + 23 x41 <= 1300
 R10: 22 x12 + 30 x22 + 26 x32 + 23 x42 <= 1200
 R11: 22 x13 + 30 x23 + 26 x33 + 23 x43 <= 1500
 R12: 27 x11 + 28 x21 + 24 x31 + 22 x41 <= 1400
 R13: 27 x12 + 28 x22 + 24 x32 + 22 x42 <= 1500
 R14: 27 x13 + 28 x23 + 24 x33 + 22 x43 <= 1200
 R15: x11 >= 8
 R16: x11 <= 15
 R17: x11 >= 0
 R18: x12 >= 9
 R19: x12 <= 22
 R20: x12 >= 0
 R21: x13 >= 7
 R22: x13 <= 10
 R23: x13 >= 0
 R24: x21 >= 7
 R25: x21 <= 10
 R26: x21 >= 0
 R27: x22 >= 8
 R28: x22 <= 12
 R29: x22 >= 0
 R30: x23 >= 6
 R31: x23 <= 9
 R32: x23 >= 0
 R33: x31 >= 4
 R34: x31 <= 13
 R35: x31 >= 0
 R36: x32 >= 6
 R37: x32 <= 20
 R38: x32 >= 0
 R39: x33 >= 8
 R40: x33 <= 10
 R41: x33 >= 0
 R42: x41 >= 5
 R43: x41 <= 10
 R44: x41 >= 0
 R45: x42 >= 5
 R46: x42 <= 12
 R47: x42 >= 0
 R48: x43 >= 5
 R49: x43 <= 32
 R50: x43 >= 0
 R51: - 0.3 x11 - 0.3 x12 - 0.3 x13 - 0.3 x21 - 0.3 x22 - 0.3 x23 + 0.7 x31
   + 0.7 x32 + 0.7 x33 - 0.3 x41 - 0.3 x42 - 0.3 x43 >= 0
 R52: - 0.2 x11 - 0.2 x12 - 0.2 x13 - 0.2 x21 - 0.2 x22 - 0.2 x23 - 0.2 x31
   - 0.2 x32 - 0.2 x33 + 0.8 x41 + 0.8 x42 + 0.8 x43 >= 0
 R53: 0.7 x11 + 0.7 x12 + 0.7 x13 - 0.3 x21 - 0.3 x22 - 0.3 x23 - 0.3 x31
   - 0.3 x32 - 0.3 x33 - 0.3 x41 - 0.3 x42 - 0.3 x43 <= 0
 R54: - 0.2 x11 - 0.2 x12 - 0.2 x13 + 0.8 x21 + 0.8 x22 + 0.8 x23 - 0.2 x31
   - 0.2 x32 - 0.2 x33 - 0.2 x41 - 0.2 x42 - 0.2 x43 <= 0
 R55: - 0.3 x11 - 0.3 x12 + 0.7 x13 - 0.3 x21 - 0.3 x22 + 0.7 x23 - 0.3 x31
   - 0.3 x32 + 0.7 x33 - 0.3 x41 - 0.3 x42 + 0.7 x43 >= 0
 R56: - 0.35 x11 + 0.65 x12 - 0.35 x13 - 0.35 x21 + 0.65 x22 - 0.35 x23
   - 0.35 x31 + 0.65 x32 - 0.35 x33 - 0.35 x41 + 0.65 x42 - 0.35 x43 <= 0
Bounds
End
